Optimize a model with 210582 rows, 16200 columns and 2922840 nonzeros
Variable types: 5400 continuous, 10800 integer (10800 binary)
Coefficient statistics:
  Matrix range     [4e-02, 8e+02]
  Objective range  [2e+00, 1e+02]
  Bounds range     [1e+00, 1e+00]
  RHS range        [1e+00, 5e+02]
Found heuristic solution: objective 1514.6124032
Presolve removed 206072 rows and 15572 columns
Presolve time: 0.99s
Presolved: 4510 rows, 628 columns, 20688 nonzeros
Variable types: 89 continuous, 539 integer (520 binary)

Root relaxation: objective 1.074949e+02, 868 iterations, 0.03 seconds

    Nodes    |    Current Node    |     Objective Bounds      |     Work
 Expl Unexpl |  Obj  Depth IntInf | Incumbent    BestBd   Gap | It/Node Time

     0     0  107.49494    0   99 1514.61240  107.49494  92.9%     -    1s
H    0     0                     967.1610734  107.49494  88.9%     -    1s
H    0     0                     811.6739445  107.49494  86.8%     -    1s
H    0     0                     526.5267973  107.49494  79.6%     -    1s
H    0     0                     309.0787058  107.49494  65.2%     -    1s
     0     0  113.63841    0  122  309.07871  113.63841  63.2%     -    1s
     0     0  115.77126    0  131  309.07871  115.77126  62.5%     -    1s
     0     0  116.77706    0  130  309.07871  116.77706  62.2%     -    1s
     0     0  117.48614    0  123  309.07871  117.48614  62.0%     -    1s
     0     0  117.48614    0  130  309.07871  117.48614  62.0%     -    1s
     0     0  118.34938    0  147  309.07871  118.34938  61.7%     -    1s
     0     0  118.34938    0  149  309.07871  118.34938  61.7%     -    1s
H    0     0                     253.9987058  118.34938  53.4%     -    1s
     0     0  118.35481    0  160  253.99871  118.35481  53.4%     -    1s
     0     0  119.42702    0  149  253.99871  119.42702  53.0%     -    1s
     0     0  119.42702    0  150  253.99871  119.42702  53.0%     -    1s
     0     0  121.64502    0  136  253.99871  121.64502  52.1%     -    1s
     0     0  121.64502    0  138  253.99871  121.64502  52.1%     -    1s
     0     0  121.64502    0  139  253.99871  121.64502  52.1%     -    1s
     0     0  121.64502    0  144  253.99871  121.64502  52.1%     -    1s
     0     0  122.15808    0  147  253.99871  122.15808  51.9%     -    1s
     0     0  122.31985    0  143  253.99871  122.31985  51.8%     -    1s
H    0     0                     243.7161405  122.73702  49.6%     -    1s
     0     0  122.73702    0  137  243.71614  122.73702  49.6%     -    1s
     0     0  122.73702    0  143  243.71614  122.73702  49.6%     -    1s
     0     0  123.58568    0  142  243.71614  123.58568  49.3%     -    1s
     0     0  123.58568    0  129  243.71614  123.58568  49.3%     -    1s
     0     0  123.58568    0  130  243.71614  123.58568  49.3%     -    1s
H    0     0                     242.9399501  123.58568  49.1%     -    1s
     0     0  127.02476    0  127  242.93995  127.02476  47.7%     -    1s
     0     0  127.08265    0  132  242.93995  127.08265  47.7%     -    1s
     0     0  134.53546    0  155  242.93995  134.53546  44.6%     -    1s
     0     0  134.53546    0  152  242.93995  134.53546  44.6%     -    1s
     0     0  134.53546    0  149  242.93995  134.53546  44.6%     -    1s
     0     0  134.86573    0  152  242.93995  134.86573  44.5%     -    1s
H    0     0                     226.1520371  138.46895  38.8%     -    1s
     0     0  138.46895    0  147  226.15204  138.46895  38.8%     -    1s
     0     0  138.63288    0  151  226.15204  138.63288  38.7%     -    1s
     0     0  138.90853    0  151  226.15204  138.90853  38.6%     -    1s
     0     0  139.95392    0  160  226.15204  139.95392  38.1%     -    1s
     0     0  140.46018    0  130  226.15204  140.46018  37.9%     -    1s
     0     2  140.46018    0  119  226.15204  140.46018  37.9%     -    1s
H   77    51                     197.1162241  140.46018  28.7%  32.0    1s
H  415    84                     189.8192880  154.26179  18.7%  21.6    2s

Cutting planes:
  Gomory: 5
  Cover: 8
  Implied bound: 16
  Clique: 1
  MIR: 43
  Inf proof: 1
  Zero half: 30

Explored 738 nodes (16521 simplex iterations) in 2.18 seconds
Thread count was 6 (of 6 available processors)

Solution count 10: 189.819 197.116 226.152 ... 967.161

Optimal solution found (tolerance 1.00e-04)
Best objective 1.898192879773e+02, best bound 1.898192879773e+02, gap 0.0000%
Optimize a model with 210582 rows, 16200 columns and 2922840 nonzeros
Variable types: 5400 continuous, 10800 integer (10800 binary)
Coefficient statistics:
  Matrix range     [4e-02, 2e+03]
  Objective range  [2e+00, 1e+02]
  Bounds range     [1e+00, 1e+00]
  RHS range        [1e+00, 1e+03]
Found heuristic solution: objective 2099.0530905
Presolve removed 205877 rows and 15567 columns
Presolve time: 1.08s
Presolved: 4705 rows, 633 columns, 22017 nonzeros
Variable types: 88 continuous, 545 integer (526 binary)

Root relaxation: objective 1.513113e+02, 973 iterations, 0.03 seconds

    Nodes    |    Current Node    |     Objective Bounds      |     Work
 Expl Unexpl |  Obj  Depth IntInf | Incumbent    BestBd   Gap | It/Node Time

     0     0  151.31135    0   86 2099.05309  151.31135  92.8%     -    1s
     0     0  155.25015    0  101 2099.05309  155.25015  92.6%     -    1s
H    0     0                    1190.9479183  155.25015  87.0%     -    1s
H    0     0                    1065.7281116  155.25015  85.4%     -    1s
     0     0  155.39448    0   98 1065.72811  155.39448  85.4%     -    1s
     0     0  155.43029    0  100 1065.72811  155.43029  85.4%     -    1s
     0     0  155.46763    0  104 1065.72811  155.46763  85.4%     -    1s
     0     0  163.53983    0  120 1065.72811  163.53983  84.7%     -    1s
     0     0  164.36272    0  118 1065.72811  164.36272  84.6%     -    1s
     0     0  164.70245    0  122 1065.72811  164.70245  84.5%     -    1s
     0     0  164.71513    0  123 1065.72811  164.71513  84.5%     -    1s
     0     0  164.72571    0  124 1065.72811  164.72571  84.5%     -    1s
     0     0  168.80170    0  134 1065.72811  168.80170  84.2%     -    1s
     0     0  169.16691    0  137 1065.72811  169.16691  84.1%     -    1s
     0     0  169.27091    0  137 1065.72811  169.27091  84.1%     -    1s
     0     0  169.28856    0  141 1065.72811  169.28856  84.1%     -    1s
     0     0  172.56683    0  154 1065.72811  172.56683  83.8%     -    1s
     0     0  173.01864    0  151 1065.72811  173.01864  83.8%     -    1s
     0     0  173.10240    0  155 1065.72811  173.10240  83.8%     -    1s
     0     0  173.12854    0  153 1065.72811  173.12854  83.8%     -    1s
     0     0  174.37561    0  154 1065.72811  174.37561  83.6%     -    1s
     0     0  174.38808    0  158 1065.72811  174.38808  83.6%     -    1s
     0     0  174.38900    0  158 1065.72811  174.38900  83.6%     -    1s
H    0     0                     638.9835246  174.38900  72.7%     -    1s
     0     0  174.80814    0  151  638.98352  174.80814  72.6%     -    1s
     0     0  174.84755    0  150  638.98352  174.84755  72.6%     -    1s
     0     0  174.85254    0  154  638.98352  174.85254  72.6%     -    1s
     0     0  175.69193    0  154  638.98352  175.69193  72.5%     -    1s
     0     0  175.80255    0  164  638.98352  175.80255  72.5%     -    1s
     0     0  175.80915    0  165  638.98352  175.80915  72.5%     -    1s
     0     0  175.81069    0  170  638.98352  175.81069  72.5%     -    1s
     0     0  176.27432    0  164  638.98352  176.27432  72.4%     -    1s
H    0     0                     624.1095968  176.27432  71.8%     -    1s
     0     0  176.30236    0  162  624.10960  176.30236  71.8%     -    1s
     0     0  176.30701    0  167  624.10960  176.30701  71.8%     -    1s
     0     0  176.30734    0  168  624.10960  176.30734  71.8%     -    1s
     0     0  176.44792    0  161  624.10960  176.44792  71.7%     -    1s
     0     0  178.52334    0  162  624.10960  178.52334  71.4%     -    1s
     0     0  178.52334    0  164  624.10960  178.52334  71.4%     -    1s
     0     0  178.52334    0  166  624.10960  178.52334  71.4%     -    1s
     0     0  178.52334    0  170  624.10960  178.52334  71.4%     -    1s
     0     0  178.52334    0  170  624.10960  178.52334  71.4%     -    1s
     0     0  178.52334    0  169  624.10960  178.52334  71.4%     -    1s
     0     0  178.52334    0  165  624.10960  178.52334  71.4%     -    1s
     0     2  178.52334    0  148  624.10960  178.52334  71.4%     -    1s
H   39    38                     565.4831498  181.38476  67.9%  85.1    2s
H  141   102                     549.6717615  181.38476  67.0%  48.5    2s
H  176   115                     452.5663139  181.38476  59.9%  42.2    2s
* 1311   550              35     442.3186367  227.64167  48.5%  34.1    2s
* 1485   601              36     423.8982431  234.03885  44.8%  33.2    3s
* 2279   863              34     414.3289461  247.89656  40.2%  32.1    3s
  2552   954  250.90797   12  143  414.32895  250.90797  39.4%  32.8    5s
H 2762   971                     408.8228579  250.90797  38.6%  34.4    5s
H 2802   904                     391.7802752  250.90797  36.0%  34.5    5s
* 5283   565              36     391.7230566  300.03703  23.4%  35.0    7s
* 7851   502              34     390.3876544  337.16897  13.6%  32.4    9s

Cutting planes:
  Gomory: 2
  Implied bound: 7
  MIR: 21
  Zero half: 18

Explored 9891 nodes (294205 simplex iterations) in 9.77 seconds
Thread count was 6 (of 6 available processors)

Solution count 10: 390.388 391.723 391.78 ... 565.483

Optimal solution found (tolerance 1.00e-04)
Best objective 3.903876544157e+02, best bound 3.903876544157e+02, gap 0.0000%
